YAlN-B4
-1344.000000
4.000000	0.000000	0.000000
-1.000000	1.732000	0.000000
0.000000	0.000000	6.000000
56 8 64
Direct
0.000000	0.000000	0.000000
0.000000	0.000000	0.250000
0.000000	0.000000	0.500000
0.000000	0.000000	0.750000
0.083336	0.333343	0.125000
0.083336	0.333343	0.625000
0.083336	0.333343	0.875000
0.000004	0.500017	0.000000
0.250004	0.500017	0.000000
0.000004	0.500017	0.250000
0.250004	0.500017	0.250000
0.000004	0.500017	0.500000
0.250004	0.500017	0.500000
0.250004	0.500017	0.750000
0.083340	0.833360	0.375000
0.333340	0.833360	0.375000
0.083340	0.833360	0.625000
0.333340	0.833360	0.625000
0.333340	0.833360	0.875000
0.250000	0.000000	0.000000
0.250000	0.000000	0.250000
0.250000	0.000000	0.500000
0.250000	0.000000	0.750000
0.333336	0.333343	0.125000
0.333336	0.333343	0.375000
0.333336	0.333343	0.625000
0.333336	0.333343	0.875000
0.500004	0.500017	0.250000
0.500004	0.500017	0.500000
0.500004	0.500017	0.750000
0.583340	0.833360	0.125000
0.583340	0.833360	0.375000
0.583340	0.833360	0.625000
0.583340	0.833360	0.875000
0.500000	0.000000	0.000000
0.500000	0.000000	0.250000
0.500000	0.000000	0.500000
0.500000	0.000000	0.750000
0.583336	0.333343	0.125000
0.583336	0.333343	0.375000
0.583336	0.333343	0.625000
0.583336	0.333343	0.875000
0.750004	0.500017	0.000000
0.750004	0.500017	0.250000
0.750004	0.500017	0.500000
0.833340	0.833360	0.125000
0.833340	0.833360	0.375000
0.833340	0.833360	0.625000
0.833340	0.833360	0.875000
0.750000	0.000000	0.000000
0.750000	0.000000	0.250000
0.750000	0.000000	0.500000
0.750000	0.000000	0.750000
0.833336	0.333343	0.125000
0.833336	0.333343	0.375000
0.833336	0.333343	0.625000
0.083336	0.333343	0.375000
0.000004	0.500017	0.750000
0.083340	0.833360	0.125000
0.333340	0.833360	0.125000
0.083340	0.833360	0.875000
0.500004	0.500017	0.000000
0.750004	0.500017	0.750000
0.833336	0.333343	0.875000
0.000000	0.000000	0.093750
0.000000	0.000000	0.343750
0.000000	0.000000	0.843750
0.083336	0.333344	0.218750
0.083336	0.333344	0.468750
0.083336	0.333344	0.718750
0.083336	0.333344	0.968750
0.250003	0.500014	0.093750
0.000003	0.500014	0.093750
0.250003	0.500014	0.343750
0.000003	0.500014	0.343750
0.250003	0.500014	0.593750
0.000003	0.500014	0.593750
0.250003	0.500014	0.843750
0.000003	0.500014	0.843750
0.333340	0.833360	0.218750
0.083340	0.833360	0.218750
0.333340	0.833360	0.468750
0.083340	0.833360	0.468750
0.333340	0.833360	0.718750
0.083340	0.833360	0.718750
0.333340	0.833360	0.968750
0.083340	0.833360	0.968750
0.250000	0.000000	0.093750
0.250000	0.000000	0.343750
0.250000	0.000000	0.593750
0.250000	0.000000	0.843750
0.333336	0.333344	0.218750
0.333336	0.333344	0.468750
0.333336	0.333344	0.718750
0.333336	0.333344	0.968750
0.500003	0.500014	0.093750
0.500003	0.500014	0.343750
0.500003	0.500014	0.593750
0.500003	0.500014	0.843750
0.583340	0.833360	0.468750
0.583340	0.833360	0.718750
0.583340	0.833360	0.968750
0.500000	0.000000	0.093750
0.500000	0.000000	0.343750
0.500000	0.000000	0.843750
0.583336	0.333344	0.218750
0.583336	0.333344	0.968750
0.750003	0.500014	0.093750
0.750003	0.500014	0.343750
0.750003	0.500014	0.593750
0.750003	0.500014	0.843750
0.833340	0.833360	0.468750
0.833340	0.833360	0.968750
0.750000	0.000000	0.093750
0.750000	0.000000	0.343750
0.750000	0.000000	0.593750
0.750000	0.000000	0.843750
0.833336	0.333344	0.218750
0.833336	0.333344	0.718750
0.833336	0.333344	0.968750
0.000000	0.000000	0.593750
0.583340	0.833360	0.218750
0.500000	0.000000	0.593750
0.583336	0.333344	0.468750
0.583336	0.333344	0.718750
0.833340	0.833360	0.218750
0.833340	0.833360	0.718750
0.833336	0.333344	0.468750
