YAlN                                    
   3.36021927494400     
     3.9385654688655434    0.0078722681353214   -0.0032041766325121
    -1.9624986351256266    3.4252170196604479   -0.0041512938189567
    -0.0024969727819734   -0.0052026288651960    3.0777788551856582
   Al   Y    N 
    48    16    64
Direct
  0.0097562979284779  0.9966715447123741  0.9955032078853454
  0.0021162873961436  0.9930535447983744  0.4979316484727276
  0.0865512182318433  0.1621382440554560  0.2574141516124012
  0.2434665530426742  0.5091600994402814  0.9924025039763781
  0.2508341772581505  0.5047344760084974  0.5034604443398950
  0.3219671357502188  0.6690813954619771  0.2448234588305654
  0.3279701985840718  0.6637147539892206  0.7470222437656211
  0.2345156929346987  0.2323598661712946  0.0014983990256979
  0.0009814211086829  0.2604480824026531  0.4911575027795138
  0.2499174135358757  0.2537765851353062  0.4985686258894758
  0.0906367182462038  0.4297233922806363  0.2532945854646608
  0.0908520851395964  0.4326855591074761  0.7418775216791297
  0.3191657097188144  0.4165566208942687  0.7476658151525819
  0.2481818444806010  0.7504174683867370  0.9969078030834074
  0.4923401631116510  0.7525911477727175  0.9974695485639411
  0.2419852753322096  0.7437625953687791  0.4983508962093252
  0.4917205926886666  0.7389896827122645  0.5042870002299124
  0.3187647781140938  0.9096187636999289  0.2454746466632998
  0.3190686612983025  0.9015711027920656  0.7507317085864822
  0.2407811407167006  0.9914096531681884  0.0009020009473890
  0.2327922945818114  0.9802885114807537  0.4962569459070670
  0.3226889825133423  0.1500408202700628  0.2579414025687892
  0.0109826092790797  0.5134546250355516  0.9983088804618344
  0.0093298432021435  0.5082355724246710  0.5002053829856220
  0.4900973922207691  0.4975001800545824  0.5211760129343158
  0.0910295181980018  0.6739433435290153  0.2455434440345424
  0.0882648615553045  0.6710140967104876  0.7463828943372890
  0.5819092736172236  0.6713541803421480  0.7526359205806364
  0.5046012920360935  0.2596306221539542  0.4999602611324456
  0.5929997336590559  0.4300056771264275  0.7359254251873315
  0.0037502587444147  0.7507016292609472  0.9969411920649693
  0.7576997467307844  0.7535238635209631  0.9868818450300536
  0.0013538636810575  0.7431780807435532  0.4935094426603330
  0.0882468672712303  0.9136547820875434  0.2456657781082930
  0.0756364349086666  0.8970701674408279  0.7454268369385360
  0.8429459633209639  0.9156198581334674  0.7566796014423541
  0.4909751286789475  0.9952363045368915  0.0108856631802517
  0.5784856243935631  0.1645174306367526  0.2516145340640430
  0.7630679735298720  0.5088390509656909  0.9940596972185962
  0.7567821242693384  0.5067829819816623  0.5040795307309381
  0.8478343022578827  0.6705170835297826  0.2375437907697851
  0.8369673961765319  0.6717917914352221  0.7539044117119296
  0.7461094546951532  0.2395924819953577  0.0079756771979859
  0.7551078315578068  0.2524628566387860  0.4953832837410178
  0.7550599693170316  0.0079550700613899  0.9921960095347542
  0.7678281986785158  0.0084801129198227  0.5048799324176304
  0.8400324774326781  0.1720863674579146  0.2549156048766943
  0.8399852048386237  0.1717719248432441  0.7405520329507607
  0.0696581616589687  0.1594648568724981  0.7279950423340770
  0.0029460734237970  0.2590610779842250  0.9980901999336911
  0.3182268808221266  0.4102714068324417  0.2414528903649403
  0.5905110538419630  0.9219742566405714  0.2343568591859557
  0.5904890740687503  0.9144304054514210  0.7431814428898678
  0.3245704832082676  0.1564786304259514  0.7273776272928766
  0.4960299307337240  0.5007155491288880  0.9611282926950017
  0.5786149430659369  0.6620851631178826  0.2376988420006564
  0.4942678363219822  0.2492996849092050  0.0025120504570464
  0.5899300377668938  0.4176515226255657  0.2583575396562093
  0.7526804230908941  0.7489009937091380  0.5032366317432216
  0.8486971798902972  0.9241960723817854  0.2299870867608863
  0.4901691535230228  0.9958941406130244  0.4814890105851675
  0.5835654669146183  0.1637023054614740  0.7498119366331122
  0.8441710493395974  0.4198100877093419  0.2416522535967885
  0.8401310305790463  0.4206119827410990  0.7393565394085485
  0.0301922682413370  0.0098003577134550  0.1815081411613446
  0.9927372759277741  0.9682912339280572  0.6817537985154560
  0.0837360169505889  0.1656133206790242  0.4514626866345927
  0.2390810016017620  0.5150049172390084  0.1779056075670242
  0.2501028849076598  0.5051356613047236  0.6886900590761290
  0.3293312059951604  0.6677284632580992  0.4377289118741491
  0.3327564747419341  0.6709403741795706  0.9336670899261662
  0.2399443917666159  0.2250568286380046  0.1917343070362010
  0.9961637353731316  0.2751652335680445  0.6826802438818367
  0.2528638896946016  0.2678524779964158  0.6784553280439134
  0.0888310670824985  0.4248383738460842  0.4397654760084783
  0.0911558478129593  0.4433952130242930  0.9256195400381367
  0.2959044651785068  0.3976737536213272  0.9392439721856958
  0.2480102224590238  0.7537623853845381  0.1839958225959820
  0.4735270603953492  0.7398410884631935  0.1782248086192215
  0.2479289270591780  0.7449908701202052  0.6882956626481169
  0.4852854752321115  0.7290795041068234  0.6888545239231647
  0.3026443355840938  0.8967783571455061  0.4288182981704810
  0.3286520511410407  0.9138456474127342  0.9430043097303582
  0.2453362856816172  0.9927376356478305  0.1898290127373325
  0.2286686370902600  0.9645175654714583  0.6798552640981346
  0.3269101150909560  0.1581521816414463  0.4544893539455283
  0.0264320485373534  0.5185304631723581  0.1831745523504545
  0.0246875319931023  0.5201776092942469  0.6809499865865712
  0.4941167388132791  0.5031262970433434  0.7150553490436838
  0.0838168560726426  0.6646387136923352  0.4342749833685036
  0.0856090151832683  0.6726390542994618  0.9355844282152918
  0.5934011093170599  0.6947104263660785  0.9397932727565269
  0.5115698626476292  0.2726052386024040  0.6845397703729978
  0.6128793876911827  0.4272433221496779  0.9204893554420718
  0.0092085460679048  0.7534965232087861  0.1851189648274804
  0.7626743489383040  0.7406316302171523  0.1734458284462008
  0.9948475207144974  0.7390773566647397  0.6845035586852769
  0.0754606978382552  0.9080936445643147  0.4329936392640921
  0.0810529827350642  0.9077297187900925  0.9355436116615935
  0.8415067649169855  0.9216345552731124  0.9473426439181677
  0.4813893022026542  0.0025851731443137  0.2056054174169548
  0.5956615132191431  0.1905034151686036  0.4391116932537508
  0.7655702942405241  0.5191133030388256  0.1742781396371547
  0.7494958615760027  0.5228102147287412  0.6827568134855776
  0.8457243285990254  0.6567089655243623  0.4243789476674182
  0.8431837468945143  0.6709917001555364  0.9369893104529690
  0.7388998290315908  0.2291193188259592  0.1932841044178868
  0.7559347004630000  0.2360458532134270  0.6736016130128614
  0.7741906415215454  0.0303943198794098  0.1701514606142035
  0.7880542481951651  0.0152290163515611  0.6900031196041292
  0.8357318292164083  0.1696504802323779  0.4390310030043841
  0.8179028968487722  0.1612128041827595  0.9241759597229657
  0.0804482115844431  0.1511428998383341  0.9429969743675171
  0.0098767104589364  0.2599306018964199  0.2185544085740690
  0.3310804532359396  0.4180132775017641  0.4597517863750228
  0.5998514689933657  0.9057658339836044  0.4658117988384961
  0.5813552644011633  0.9187570940440719  0.9711164973563906
  0.3087911804206329  0.1488593098155555  0.9443670096802479
  0.4920145908673388  0.4865490553105016  0.1708508658995912
  0.5618903097689480  0.6502836671839644  0.4568963395015787
  0.4835451667301164  0.2300244063067464  0.2156986903946986
  0.5834476999420143  0.4268354231569788  0.4720746019489784
  0.7483462811997795  0.7527372938358083  0.7194507023860865
  0.8481093228445062  0.9350086298064181  0.4439484929060706
  0.4729424014723255  0.9823657672738625  0.6929722692475645
  0.5852067577870067  0.1528208925244255  0.9652804358045949
  0.8390119553794133  0.4202185875023668  0.4690186606016871
  0.8407432222175181  0.4139725155647546  0.9675913270062331
 
  0.00000000E+00  0.00000000E+00  0.00000000E+00
  0.00000000E+00  0.00000000E+00  0.00000000E+00
  0.00000000E+00  0.00000000E+00  0.00000000E+00
  0.00000000E+00  0.00000000E+00  0.00000000E+00
  0.00000000E+00  0.00000000E+00  0.00000000E+00
  0.00000000E+00  0.00000000E+00  0.00000000E+00
  0.00000000E+00  0.00000000E+00  0.00000000E+00
  0.00000000E+00  0.00000000E+00  0.00000000E+00
  0.00000000E+00  0.00000000E+00  0.00000000E+00
  0.00000000E+00  0.00000000E+00  0.00000000E+00
  0.00000000E+00  0.00000000E+00  0.00000000E+00
  0.00000000E+00  0.00000000E+00  0.00000000E+00
  0.00000000E+00  0.00000000E+00  0.00000000E+00
  0.00000000E+00  0.00000000E+00  0.00000000E+00
  0.00000000E+00  0.00000000E+00  0.00000000E+00
  0.00000000E+00  0.00000000E+00  0.00000000E+00
  0.00000000E+00  0.00000000E+00  0.00000000E+00
  0.00000000E+00  0.00000000E+00  0.00000000E+00
  0.00000000E+00  0.00000000E+00  0.00000000E+00
  0.00000000E+00  0.00000000E+00  0.00000000E+00
  0.00000000E+00  0.00000000E+00  0.00000000E+00
  0.00000000E+00  0.00000000E+00  0.00000000E+00
  0.00000000E+00  0.00000000E+00  0.00000000E+00
  0.00000000E+00  0.00000000E+00  0.00000000E+00
  0.00000000E+00  0.00000000E+00  0.00000000E+00
  0.00000000E+00  0.00000000E+00  0.00000000E+00
  0.00000000E+00  0.00000000E+00  0.00000000E+00
  0.00000000E+00  0.00000000E+00  0.00000000E+00
  0.00000000E+00  0.00000000E+00  0.00000000E+00
  0.00000000E+00  0.00000000E+00  0.00000000E+00
  0.00000000E+00  0.00000000E+00  0.00000000E+00
  0.00000000E+00  0.00000000E+00  0.00000000E+00
  0.00000000E+00  0.00000000E+00  0.00000000E+00
  0.00000000E+00  0.00000000E+00  0.00000000E+00
  0.00000000E+00  0.00000000E+00  0.00000000E+00
  0.00000000E+00  0.00000000E+00  0.00000000E+00
  0.00000000E+00  0.00000000E+00  0.00000000E+00
  0.00000000E+00  0.00000000E+00  0.00000000E+00
  0.00000000E+00  0.00000000E+00  0.00000000E+00
  0.00000000E+00  0.00000000E+00  0.00000000E+00
  0.00000000E+00  0.00000000E+00  0.00000000E+00
  0.00000000E+00  0.00000000E+00  0.00000000E+00
  0.00000000E+00  0.00000000E+00  0.00000000E+00
  0.00000000E+00  0.00000000E+00  0.00000000E+00
  0.00000000E+00  0.00000000E+00  0.00000000E+00
  0.00000000E+00  0.00000000E+00  0.00000000E+00
  0.00000000E+00  0.00000000E+00  0.00000000E+00
  0.00000000E+00  0.00000000E+00  0.00000000E+00
  0.00000000E+00  0.00000000E+00  0.00000000E+00
  0.00000000E+00  0.00000000E+00  0.00000000E+00
  0.00000000E+00  0.00000000E+00  0.00000000E+00
  0.00000000E+00  0.00000000E+00  0.00000000E+00
  0.00000000E+00  0.00000000E+00  0.00000000E+00
  0.00000000E+00  0.00000000E+00  0.00000000E+00
  0.00000000E+00  0.00000000E+00  0.00000000E+00
  0.00000000E+00  0.00000000E+00  0.00000000E+00
  0.00000000E+00  0.00000000E+00  0.00000000E+00
  0.00000000E+00  0.00000000E+00  0.00000000E+00
  0.00000000E+00  0.00000000E+00  0.00000000E+00
  0.00000000E+00  0.00000000E+00  0.00000000E+00
  0.00000000E+00  0.00000000E+00  0.00000000E+00
  0.00000000E+00  0.00000000E+00  0.00000000E+00
  0.00000000E+00  0.00000000E+00  0.00000000E+00
  0.00000000E+00  0.00000000E+00  0.00000000E+00
  0.00000000E+00  0.00000000E+00  0.00000000E+00
  0.00000000E+00  0.00000000E+00  0.00000000E+00
  0.00000000E+00  0.00000000E+00  0.00000000E+00
  0.00000000E+00  0.00000000E+00  0.00000000E+00
  0.00000000E+00  0.00000000E+00  0.00000000E+00
  0.00000000E+00  0.00000000E+00  0.00000000E+00
  0.00000000E+00  0.00000000E+00  0.00000000E+00
  0.00000000E+00  0.00000000E+00  0.00000000E+00
  0.00000000E+00  0.00000000E+00  0.00000000E+00
  0.00000000E+00  0.00000000E+00  0.00000000E+00
  0.00000000E+00  0.00000000E+00  0.00000000E+00
  0.00000000E+00  0.00000000E+00  0.00000000E+00
  0.00000000E+00  0.00000000E+00  0.00000000E+00
  0.00000000E+00  0.00000000E+00  0.00000000E+00
  0.00000000E+00  0.00000000E+00  0.00000000E+00
  0.00000000E+00  0.00000000E+00  0.00000000E+00
  0.00000000E+00  0.00000000E+00  0.00000000E+00
  0.00000000E+00  0.00000000E+00  0.00000000E+00
  0.00000000E+00  0.00000000E+00  0.00000000E+00
  0.00000000E+00  0.00000000E+00  0.00000000E+00
  0.00000000E+00  0.00000000E+00  0.00000000E+00
  0.00000000E+00  0.00000000E+00  0.00000000E+00
  0.00000000E+00  0.00000000E+00  0.00000000E+00
  0.00000000E+00  0.00000000E+00  0.00000000E+00
  0.00000000E+00  0.00000000E+00  0.00000000E+00
  0.00000000E+00  0.00000000E+00  0.00000000E+00
  0.00000000E+00  0.00000000E+00  0.00000000E+00
  0.00000000E+00  0.00000000E+00  0.00000000E+00
  0.00000000E+00  0.00000000E+00  0.00000000E+00
  0.00000000E+00  0.00000000E+00  0.00000000E+00
  0.00000000E+00  0.00000000E+00  0.00000000E+00
  0.00000000E+00  0.00000000E+00  0.00000000E+00
  0.00000000E+00  0.00000000E+00  0.00000000E+00
  0.00000000E+00  0.00000000E+00  0.00000000E+00
  0.00000000E+00  0.00000000E+00  0.00000000E+00
  0.00000000E+00  0.00000000E+00  0.00000000E+00
  0.00000000E+00  0.00000000E+00  0.00000000E+00
  0.00000000E+00  0.00000000E+00  0.00000000E+00
  0.00000000E+00  0.00000000E+00  0.00000000E+00
  0.00000000E+00  0.00000000E+00  0.00000000E+00
  0.00000000E+00  0.00000000E+00  0.00000000E+00
  0.00000000E+00  0.00000000E+00  0.00000000E+00
  0.00000000E+00  0.00000000E+00  0.00000000E+00
  0.00000000E+00  0.00000000E+00  0.00000000E+00
  0.00000000E+00  0.00000000E+00  0.00000000E+00
  0.00000000E+00  0.00000000E+00  0.00000000E+00
  0.00000000E+00  0.00000000E+00  0.00000000E+00
  0.00000000E+00  0.00000000E+00  0.00000000E+00
  0.00000000E+00  0.00000000E+00  0.00000000E+00
  0.00000000E+00  0.00000000E+00  0.00000000E+00
  0.00000000E+00  0.00000000E+00  0.00000000E+00
  0.00000000E+00  0.00000000E+00  0.00000000E+00
  0.00000000E+00  0.00000000E+00  0.00000000E+00
  0.00000000E+00  0.00000000E+00  0.00000000E+00
  0.00000000E+00  0.00000000E+00  0.00000000E+00
  0.00000000E+00  0.00000000E+00  0.00000000E+00
  0.00000000E+00  0.00000000E+00  0.00000000E+00
  0.00000000E+00  0.00000000E+00  0.00000000E+00
  0.00000000E+00  0.00000000E+00  0.00000000E+00
  0.00000000E+00  0.00000000E+00  0.00000000E+00
  0.00000000E+00  0.00000000E+00  0.00000000E+00
  0.00000000E+00  0.00000000E+00  0.00000000E+00
  0.00000000E+00  0.00000000E+00  0.00000000E+00
  0.00000000E+00  0.00000000E+00  0.00000000E+00
