Example 1
4.255700
  0.500000  0.500000  0.000000
  -0.500000  0.500000  0.000000
  0.000000  0.000000  3.349790
Ti N  
3 3 
Direct
  0.000000	0.000000	0.000000
  0.500000	0.500000	0.149263
  0.000000	0.000000	0.298526
  0.500000	0.500000	0.000000
  0.000000	0.000000	0.149263
  0.500000	0.500000	0.298526
